
Gurobi 10.0.3 (linux64, gurobi_cl) logging started Fri Nov 10 20:49:55 2023

Set parameter Username
Set parameter TimeLimit to value 3600
Set parameter LogFile to value "RCPSP_1900.log"
Set parameter Threads to value 32
Academic license - for non-commercial use only - expires 2024-10-30
Using license file /home/jrivera6/gurobi-licenses/v1003/compute-0-34/gurobi.lic

Gurobi Optimizer version 10.0.3 build v10.0.3rc0 (linux64)
Copyright (c) 2023, Gurobi Optimization, LLC

Read MPS format model from file RCPSP_1900.mps
Reading time = 0.10 seconds
RCPSP_1900: 75288 rows, 29890 columns, 251703 nonzeros

CPU model: Intel(R) Xeon(R) Gold 6130 CPU @ 2.10GHz, instruction set [SSE2|AVX|AVX2|AVX512]
Thread count: 32 physical cores, 32 logical processors, using up to 32 threads

Optimize a model with 75288 rows, 29890 columns and 251703 nonzeros
Model fingerprint: 0x61f61f0b
Variable types: 122 continuous, 29768 integer (29768 binary)
Coefficient statistics:
  Matrix range     [1e+00, 7e+02]
  Objective range  [1e+00, 1e+00]
  Bounds range     [1e+00, 1e+00]
  RHS range        [1e+00, 7e+02]
Presolve removed 19595 rows and 5216 columns (presolve time = 5s) ...
Presolve removed 19595 rows and 5216 columns (presolve time = 10s) ...
Presolve removed 23948 rows and 6614 columns (presolve time = 15s) ...
Presolve removed 23948 rows and 6614 columns
Presolve time: 15.47s
Presolved: 51340 rows, 23276 columns, 176989 nonzeros
Variable types: 121 continuous, 23155 integer (23155 binary)

Deterministic concurrent LP optimizer: primal and dual simplex (primal and dual model)
Showing first log only...

Root relaxation presolved: 51336 rows, 23280 columns, 176981 nonzeros


Root simplex log...

Iteration    Objective       Primal Inf.    Dual Inf.      Time
       0    1.0544684e+02   5.850419e-03   2.390400e+08     17s
    2706    1.0500000e+02   0.000000e+00   0.000000e+00     18s
    2706    1.0500000e+02   0.000000e+00   0.000000e+00     18s
Concurrent spin time: 0.98s

Solved with dual simplex (primal model)

Root relaxation: objective 1.050000e+02, 7130 iterations, 3.01 seconds (0.21 work units)
Total elapsed time = 24.88s
Total elapsed time = 26.21s

    Nodes    |    Current Node    |     Objective Bounds      |     Work
 Expl Unexpl |  Obj  Depth IntInf | Incumbent    BestBd   Gap | It/Node Time

     0     0  105.00000    0  582          -  105.00000      -     -   33s
     0     0  105.00000    0  582          -  105.00000      -     -   33s
     0     0  105.63158    0 1409          -  105.63158      -     -   78s
     0     0  105.63158    0 1361          -  105.63158      -     -   80s
     0     0  105.63158    0 1454          -  105.63158      -     -   88s
     0     0  105.63158    0 1371          -  105.63158      -     -   91s
     0     0  105.63158    0 1494          -  105.63158      -     -   93s
     0     0  105.63158    0 1491          -  105.63158      -     -   93s
     0     0  107.04205    0 1601          -  107.04205      -     -  108s
     0     0  107.04205    0 1574          -  107.04205      -     -  108s
     0     0  107.04205    0 1668          -  107.04205      -     -  121s
     0     0  107.04205    0 1590          -  107.04205      -     -  123s
     0     0  107.04205    0 1547          -  107.04205      -     -  124s
     0     0  110.80860    0 1428          -  110.80860      -     -  131s
     0     0  110.80860    0 1333          -  110.80860      -     -  133s
     0     0  110.80860    0 1322          -  110.80860      -     -  133s
     0     0  110.80860    0 1248          -  110.80860      -     -  145s
     0     0  110.80860    0 1231          -  110.80860      -     -  146s
     0     0  110.92366    0 1426          -  110.92366      -     -  151s
     0     0  110.92366    0 1373          -  110.92366      -     -  151s
     0     0  113.97109    0 1415          -  113.97109      -     -  160s
     0     0  113.97109    0 1237          -  113.97109      -     -  161s
H    0     0                     707.0000000  113.97109  83.9%     -  163s
     0     0  114.08566    0 1365  707.00000  114.08566  83.9%     -  165s
     0     0  116.80860    0  397  707.00000  116.80860  83.5%     -  218s
     0     0  116.80860    0  984  707.00000  116.80860  83.5%     -  242s
H    0     0                     515.0000000  116.80860  77.3%     -  262s
H    0     0                     506.0000000  116.80860  76.9%     -  263s
     0     0  116.80860    0 1208  506.00000  116.80860  76.9%     -  266s
     0     0  116.80860    0 1158  506.00000  116.80860  76.9%     -  268s
     0     0  116.80860    0 1147  506.00000  116.80860  76.9%     -  268s
     0     0  122.80860    0  511  506.00000  122.80860  75.7%     -  325s
H    0     0                     457.0000000  122.80860  73.1%     -  344s
     0     0  122.80860    0  718  457.00000  122.80860  73.1%     -  346s
     0     0  122.80860    0  690  457.00000  122.80860  73.1%     -  347s
     0     0  122.80860    0 1186  457.00000  122.80860  73.1%     -  356s
     0     0  122.80860    0 1292  457.00000  122.80860  73.1%     -  358s
     0     0  122.80860    0 1212  457.00000  122.80860  73.1%     -  360s
     0     0  122.80860    0 1266  457.00000  122.80860  73.1%     -  372s
     0     0  122.80860    0 1230  457.00000  122.80860  73.1%     -  372s
     0     0  122.80860    0 1225  457.00000  122.80860  73.1%     -  372s
     0     0  122.80860    0 1375  457.00000  122.80860  73.1%     -  376s
     0     0  122.80860    0 1354  457.00000  122.80860  73.1%     -  382s
     0     0  122.80860    0 1312  457.00000  122.80860  73.1%     -  386s
     0     0  122.80860    0 1181  457.00000  122.80860  73.1%     -  388s
     0     0  122.80860    0 1170  457.00000  122.80860  73.1%     -  389s
     0     0  122.80860    0 1332  457.00000  122.80860  73.1%     -  391s
     0     0  122.80860    0 1403  457.00000  122.80860  73.1%     -  392s
     0     0  122.80860    0 1398  457.00000  122.80860  73.1%     -  392s
     0     0  122.80860    0 1270  457.00000  122.80860  73.1%     -  399s
H    0     0                     438.0000000  122.80860  72.0%     -  418s
H    0     0                     416.0000000  122.80860  70.5%     -  421s
     0     0  122.80860    0 1194  416.00000  122.80860  70.5%     -  422s
     0     0  122.80860    0 1155  416.00000  122.80860  70.5%     -  424s
     0     0  122.80860    0 1153  416.00000  122.80860  70.5%     -  424s
     0     0  122.80860    0 1209  416.00000  122.80860  70.5%     -  433s
     0     0  122.80860    0 1126  416.00000  122.80860  70.5%     -  436s
     0     0  122.80860    0 1118  416.00000  122.80860  70.5%     -  438s
     0     0  122.80860    0 1129  416.00000  122.80860  70.5%     -  441s
     0     0  122.80860    0 1117  416.00000  122.80860  70.5%     -  441s
     0     0  122.80860    0 1187  416.00000  122.80860  70.5%     -  455s
     0     0  122.80860    0 1119  416.00000  122.80860  70.5%     -  456s
     0     0  122.80860    0 1106  416.00000  122.80860  70.5%     -  457s
     0     0  122.80860    0 1094  416.00000  122.80860  70.5%     -  457s
     0     0  122.80860    0 1177  416.00000  122.80860  70.5%     -  463s
     0     0  122.80860    0 1096  416.00000  122.80860  70.5%     -  463s
     0     0  122.80860    0 1279  416.00000  122.80860  70.5%     -  484s
     0     0  122.80860    0 1273  416.00000  122.80860  70.5%     -  486s
     0     0  122.80860    0 1256  416.00000  122.80860  70.5%     -  487s
     0     0  122.80860    0  473  416.00000  122.80860  70.5%     -  509s
     0     0  122.80860    0  473  416.00000  122.80860  70.5%     -  510s
     0     0  122.80860    0  473  416.00000  122.80860  70.5%     -  510s
H    0     0                     397.0000000  122.80860  69.1%     -  554s
H    0     0                     396.0000000  122.80860  69.0%     -  580s
     0     0  122.80860    0 1090  396.00000  122.80860  69.0%     -  581s
     0     0  122.80860    0 1055  396.00000  122.80860  69.0%     -  582s
     0     0  122.80860    0  429  396.00000  122.80860  69.0%     -  607s
H    0     0                     377.0000000  122.80860  67.4%     -  640s
     0     0  122.80860    0 1061  377.00000  122.80860  67.4%     -  644s
     0     0  122.80860    0 1106  377.00000  122.80860  67.4%     -  645s
     0     0  122.80860    0  930  377.00000  122.80860  67.4%     -  674s
     0     0  122.80860    0  925  377.00000  122.80860  67.4%     -  674s
H    0     0                     363.0000000  122.80860  66.2%     -  690s
     0     0  122.80860    0 1261  363.00000  122.80860  66.2%     -  692s
     0     0  122.80860    0 1213  363.00000  122.80860  66.2%     -  692s
     0     0  122.80860    0  672  363.00000  122.80860  66.2%     -  717s
     0     0  122.80860    0  668  363.00000  122.80860  66.2%     -  718s
     0     0  122.80860    0  518  363.00000  122.80860  66.2%     -  754s
H    0     0                     339.0000000  122.80860  63.8%     -  763s
     0     2  122.80860    0  387  339.00000  122.80860  63.8%     -  808s
     1     4  122.80860    1  611  339.00000  122.80860  63.8%  9059  821s
     3     8  126.80860    2 1193  339.00000  122.80860  63.8%  3669  862s
     7     8  126.80860    3 1050  339.00000  125.99479  62.8%  2858  894s
    15    10  126.80860    4 1018  339.00000  125.99479  62.8%  1797  922s
    23    17  126.80860    5 1145  339.00000  125.99479  62.8%  1397  962s
    33    21  126.80860    6 1039  339.00000  125.99479  62.8%  1582  997s
H   50    31                     326.0000000  125.99479  61.4%  1428 1768s
    51    31  126.80860    7 1121  326.00000  125.99479  61.4%  1501 1826s
H   55    31                     319.0000000  125.99479  60.5%  1478 1953s
    61    31  126.80860    7 1100  319.00000  125.99479  60.5%  1517 2353s
H   63    31                     315.0000000  125.99479  60.0%  1469 2381s
    64    31  127.25344    7 1098  315.00000  125.99479  60.0%  1513 2430s
    67    31  127.80860    7 1027  315.00000  125.99479  60.0%  1524 2511s
    68    31  127.80860    7 1116  315.00000  125.99479  60.0%  1538 2527s
    71    29  134.80860    8 1031  315.00000  125.99479  60.0%  1511 4172s
    80    29  127.80860    8 1188  315.00000  125.99479  60.0%  1442 4179s

Cutting planes:
  Learned: 2
  Gomory: 10
  Cover: 289
  Implied bound: 984
  Clique: 27
  MIR: 2345
  StrongCG: 40
  Zero half: 8
  RLT: 1097
  Relax-and-lift: 414
  PSD: 2

Explored 85 nodes (330353 simplex iterations) in 4216.42 seconds (150.53 work units)
Thread count was 32 (of 32 available processors)

Solution count 10: 315 319 326 ... 438

Time limit reached
Best objective 3.149999999999e+02, best bound 1.259947879679e+02, gap 60.0017%

Wrote result file 'RCPSP_1900.sol'

